NAME: random-73-30119
TYPE: TSP
COMMENT: size=73 seed=30119
DIMENSION: 148
EDGE_WEIGHT_TYPE: EUC_2D
NODE_COORD_SECTION
+0 33 864
-0 33 864
+1 908 50
-1 584 920
+2 864 27
-2 510 967
+3 79 471
-3 783 619
+4 455 294
-4 404 417
+5 679 563
-5 238 802
+6 845 137
-6 238 417
+7 841 872
-7 744 762
+8 40 210
-8 400 85
+9 563 777
-9 598 758
+10 393 297
-10 812 554
+11 634 372
-11 604 867
+12 275 315
-12 477 171
+13 85 823
-13 952 605
+14 265 32
-14 622 329
+15 109 89
-15 481 480
+16 67 441
-16 911 948
+17 517 40
-17 702 596
+18 350 166
-18 50 630
+19 870 108
-19 983 152
+20 34 761
-20 232 74
+21 473 438
-21 917 420
+22 675 448
-22 491 415
+23 11 985
-23 947 794
+24 287 888
-24 305 519
+25 218 572
-25 99 495
+26 340 203
-26 14 478
+27 227 165
-27 693 50
+28 814 109
-28 672 895
+29 534 152
-29 870 612
+30 160 593
-30 456 686
+31 582 979
-31 991 495
+32 858 217
-32 493 2
+33 789 301
-33 133 680
+34 708 107
-34 654 70
+35 79 464
-35 572 869
+36 752 793
-36 823 743
+37 194 403
-37 196 953
+38 940 609
-38 121 593
+39 439 535
-39 561 5
+40 429 411
-40 672 343
+41 784 607
-41 465 217
+42 115 920
-42 597 808
+43 125 227
-43 856 269
+44 663 278
-44 348 382
+45 846 389
-45 860 674
+46 371 314
-46 228 690
+47 286 564
-47 265 206
+48 764 157
-48 420 12
+49 860 430
-49 697 255
+50 139 702
-50 385 462
+51 915 674
-51 587 309
+52 206 153
-52 417 646
+53 484 577
-53 671 671
+54 100 703
-54 226 350
+55 23 928
-55 167 283
+56 184 519
-56 483 715
+57 694 443
-57 655 158
+58 385 872
-58 937 585
+59 756 634
-59 644 364
+60 70 277
-60 338 349
+61 891 348
-61 920 830
+62 748 128
-62 437 100
+63 228 461
-63 858 124
+64 425 430
-64 435 442
+65 764 752
-65 62 153
+66 434 123
-66 99 83
+67 376 485
-67 57 742
+68 726 588
-68 107 605
+69 606 753
-69 22 644
+70 370 48
-70 207 585
+71 526 556
-71 489 558
+72 635 612
-72 868 101
+73 322 462
-73 548 766
PRECEDENCE_SECTION
+0 -0
+1 -1
+2 -2
+3 -3
+4 -4
+5 -5
+6 -6
+7 -7
+8 -8
+9 -9
+10 -10
+11 -11
+12 -12
+13 -13
+14 -14
+15 -15
+16 -16
+17 -17
+18 -18
+19 -19
+20 -20
+21 -21
+22 -22
+23 -23
+24 -24
+25 -25
+26 -26
+27 -27
+28 -28
+29 -29
+30 -30
+31 -31
+32 -32
+33 -33
+34 -34
+35 -35
+36 -36
+37 -37
+38 -38
+39 -39
+40 -40
+41 -41
+42 -42
+43 -43
+44 -44
+45 -45
+46 -46
+47 -47
+48 -48
+49 -49
+50 -50
+51 -51
+52 -52
+53 -53
+54 -54
+55 -55
+56 -56
+57 -57
+58 -58
+59 -59
+60 -60
+61 -61
+62 -62
+63 -63
+64 -64
+65 -65
+66 -66
+67 -67
+68 -68
+69 -69
+70 -70
+71 -71
+72 -72
+73 -73
EOF
